webassembly/ejemplos_results/9/folder9_json_8.txt
value = 9;
fgas = [1, 1, 1, 1, 1, 1, 1, 1, 1];
fsize = [1, 1, 1, 1, 1, 1, 1, 1, 1];
states = 
[|     '.',     '.',     '.',     '.',     '.', '.', '.', '.', '.',    '.'
 | local_0,     '.',     '.',     '.',     '.', '.', '.', '.', '.',    '.'
 | local_0, local_0,     '.',     '.',     '.', '.', '.', '.', '.',    '.'
 | local_0, local_0, local_0,     '.',     '.', '.', '.', '.', '.',    '.'
 | local_0,  's(0)', local_0, local_0,     '.', '.', '.', '.', '.',    '.'
 |  's(1)',  's(0)',  's(0)', local_0, local_0, '.', '.', '.', '.',    '.'
 |  's(2)',  's(2)', local_0, local_0,     '.', '.', '.', '.', '.', 's(0)'
 | local_0,  's(0)',  's(2)', local_0, local_0, '.', '.', '.', '.',    '.'
 |  's(0)',  's(2)', local_0, local_0,     '.', '.', '.', '.', '.',    '.'
 | local_0, local_0,  's(2)', local_0, local_0, '.', '.', '.', '.',    '.'
 |];
register_states = 
[| local_1, '.', '.', '.', '.'
 | local_1, '.', '.', '.', '.'
 | local_1, '.', '.', '.', '.'
 | local_1, '.', '.', '.', '.'
 | local_1, '.', '.', '.', '.'
 | local_1, '.', '.', '.', '.'
 | local_1, '.', '.', '.', '.'
 | local_1, '.', '.', '.', '.'
 | local_0, '.', '.', '.', '.'
 | local_0, '.', '.', '.', '.'
 |];
program = [O('local.get_0'), O('local.get_0'), O('local.get_0'), O('local.get_0'), O('call[function_index(0)]_5'), O('i32.sub_0'), O('local.get_0'), S(SET1), O('local.get_0')];
% time elapsed: 0.11 s
----------
value = 8;
fgas = [1, 1, 1, 1, 1, 1, 1, 1, 0];
fsize = [1, 1, 1, 1, 1, 1, 1, 1, 1];
states = 
[|     '.',     '.',     '.',     '.',     '.', '.', '.', '.', '.',     '.'
 | local_0,  's(0)',     '.',     '.',     '.', '.', '.', '.', '.',     '.'
 |  's(1)',  's(0)', local_0,     '.',     '.', '.', '.', '.', '.',     '.'
 | local_0,  's(0)',  's(0)', local_0,     '.', '.', '.', '.', '.',     '.'
 | local_0,  's(1)',  's(0)',  's(0)', local_0, '.', '.', '.', '.',     '.'
 |  's(1)',  's(0)',  's(0)', local_0,     '.', '.', '.', '.', '.',     '.'
 |  's(2)', local_0, local_0,     '.',     '.', '.', '.', '.', '.', local_0
 | local_0,  's(2)', local_0, local_0,     '.', '.', '.', '.', '.',     '.'
 | local_0, local_0,  's(2)', local_0, local_0, '.', '.', '.', '.',     '.'
 | local_0, local_0,  's(2)', local_0, local_0, '.', '.', '.', '.',     '.'
 |];
register_states = 
[| local_1, '.', '.', '.', '.'
 | local_1, '.', '.', '.', '.'
 | local_1, '.', '.', '.', '.'
 | local_1, '.', '.', '.', '.'
 | local_1, '.', '.', '.', '.'
 | local_0, '.', '.', '.', '.'
 | local_0, '.', '.', '.', '.'
 | local_0, '.', '.', '.', '.'
 | local_0, '.', '.', '.', '.'
 | local_0, '.', '.', '.', '.'
 |];
program = [O('local.get_0'), O('call[function_index(0)]_5'), O('local.get_0'), O('local.get_0'), S(SET1), O('i32.sub_0'), O('local.get_0'), O('local.get_0'), NOP];
% time elapsed: 0.12 s
----------
value = 7;
fgas = [1, 1, 1, 1, 1, 1, 1, 0, 0];
fsize = [1, 1, 1, 1, 1, 1, 1, 1, 1];
states = 
[|     '.',     '.',     '.',     '.',     '.', '.', '.', '.', '.',    '.'
 | local_0, local_0,     '.',     '.',     '.', '.', '.', '.', '.',    '.'
 | local_0,  's(0)', local_0,     '.',     '.', '.', '.', '.', '.',    '.'
 |  's(1)',  's(0)',  's(1)', local_0,     '.', '.', '.', '.', '.',    '.'
 |  's(2)', local_0, local_0,     '.',     '.', '.', '.', '.', '.', 's(0)'
 | local_0,  's(2)', local_0, local_0,     '.', '.', '.', '.', '.',    '.'
 | local_0,  's(2)', local_0, local_0,     '.', '.', '.', '.', '.', 's(0)'
 | local_0, local_0,  's(2)', local_0, local_0, '.', '.', '.', '.',    '.'
 | local_0, local_0,  's(2)', local_0, local_0, '.', '.', '.', '.',    '.'
 | local_0, local_0,  's(2)', local_0, local_0, '.', '.', '.', '.',    '.'
 |];
register_states = 
[| local_1, '.', '.', '.', '.'
 | local_1, '.', '.', '.', '.'
 | local_1, '.', '.', '.', '.'
 | local_1, '.', '.', '.', '.'
 | local_1, '.', '.', '.', '.'
 | local_1, '.', '.', '.', '.'
 | local_0, '.', '.', '.', '.'
 | local_0, '.', '.', '.', '.'
 | local_0, '.', '.', '.', '.'
 | local_0, '.', '.', '.', '.'
 |];
program = [O('local.get_0'), O('local.get_0'), O('call[function_index(0)]_5'), O('i32.sub_0'), O('local.get_0'), TEE(TEE1), O('local.get_0'), NOP, NOP];
% time elapsed: 0.12 s
----------
==========
% time elapsed: 0.12 s
% [value > 6]
